\ENCODING=ISO-8859-1
\Problem name: IloCplex

Minimize
 obj: z(8) + z(1) + z(2) + z(3) + z(4) + z(5) + z(6) + z(7)
Subject To
 inf: w(8) + w(1) + w(2) + w(3) + w(4) + w(5) + w(6) + w(7) >= 7.19999980926514
 r_8: - z(8) - z(1) + w(8) <= 0
 r_1: - z(8) - z(1) + w(1) <= 0
 r_2: - z(8) - z(1) + w(2) <= 0
 r_3: - z(1) + w(3) <= 0
 r_4: - z(1) + w(4) <= 0
 r_5: - z(1) + w(5) <= 0
 r_6: - z(8) - z(1) + w(6) <= 0
 r_7: - z(8) + w(7) <= 0
Bounds
 0 <= z(8) <= 1
 0 <= z(1) <= 1
 0 <= z(2) <= 1
 0 <= z(3) <= 1
 0 <= z(4) <= 1
 0 <= z(5) <= 1
 0 <= z(6) <= 1
 0 <= z(7) <= 1
 0 <= w(8) <= 1
 0 <= w(1) <= 1
 0 <= w(2) <= 1
 0 <= w(3) <= 1
 0 <= w(4) <= 1
 0 <= w(5) <= 1
 0 <= w(6) <= 1
 0 <= w(7) <= 1
Binaries
 z(8)  z(1)  z(2)  z(3)  z(4)  z(5)  z(6)  z(7)  w(8)  w(1)  w(2)  w(3)  w(4) 
 w(5)  w(6)  w(7) 
End
